Maximize
 0
Subject To
 epc_0!1: +89.33840919408004 y_1!1_2!1 -39.43007864365955 y_1!2_2!1 -52.50031411198528 y_1!3_2!1 -87.52297732146428 y_1!1_2!2 -22.947476813393692 y_1!2_2!2 +61.429650800883934 y_1!3_2!2 +89.37879541655275 y_1!1_2!3 +42.32095591171935 y_1!2_2!3 -15.937447533124342 y_1!3_2!3 + lambda_0!1 - mu_0 = 0
 epc_0!2: -4.773321929349294 y_1!1_2!1 -91.69981787420338 y_1!2_2!1 -50.99759865818454 y_1!3_2!1 -82.97944330912574 y_1!1_2!2 -70.36156353904961 y_1!2_2!2 +48.94863866123461 y_1!3_2!2 +4.026336426529454 y_1!1_2!3 -56.43457836412398 y_1!2_2!3 -47.0939874442714 y_1!3_2!3 + lambda_0!2 - mu_0 = 0
 epc_0!3: +80.97213516891509 y_1!1_2!1 -35.40014728702042 y_1!2_2!1 +65.87813413880747 y_1!3_2!1 +3.200477114203238 y_1!1_2!2 +71.8590599783895 y_1!2_2!2 +54.18649526277761 y_1!3_2!2 -97.07003930419734 y_1!1_2!3 +38.25358386238423 y_1!2_2!3 +32.33209708551493 y_1!3_2!3 + lambda_0!3 - mu_0 = 0
 dc_0: x_0!1 + x_0!2 + x_0!3 = 1
 bc_0!1: lambda_0!1 +289.9689139319596 x_0!1 <= 289.9689139319596
 bc_0!2: lambda_0!2 +289.9689139319596 x_0!2 <= 289.9689139319596
 bc_0!3: lambda_0!3 +289.9689139319596 x_0!3 <= 289.9689139319596
 sum_0!1: y_1!1_2!1 - x_1!1 - x_2!1 >= -1
 idk_0!1!1: y_1!1_2!1 - x_1!1 <= 0
 idk_0!1!2: y_1!1_2!1 - x_2!1 <= 0
 sum_0!2: y_1!2_2!1 - x_1!2 - x_2!1 >= -1
 idk_0!2!1: y_1!2_2!1 - x_1!2 <= 0
 idk_0!2!2: y_1!2_2!1 - x_2!1 <= 0
 sum_0!3: y_1!3_2!1 - x_1!3 - x_2!1 >= -1
 idk_0!3!1: y_1!3_2!1 - x_1!3 <= 0
 idk_0!3!2: y_1!3_2!1 - x_2!1 <= 0
 sum_0!4: y_1!1_2!2 - x_1!1 - x_2!2 >= -1
 idk_0!4!1: y_1!1_2!2 - x_1!1 <= 0
 idk_0!4!2: y_1!1_2!2 - x_2!2 <= 0
 sum_0!5: y_1!2_2!2 - x_1!2 - x_2!2 >= -1
 idk_0!5!1: y_1!2_2!2 - x_1!2 <= 0
 idk_0!5!2: y_1!2_2!2 - x_2!2 <= 0
 sum_0!6: y_1!3_2!2 - x_1!3 - x_2!2 >= -1
 idk_0!6!1: y_1!3_2!2 - x_1!3 <= 0
 idk_0!6!2: y_1!3_2!2 - x_2!2 <= 0
 sum_0!7: y_1!1_2!3 - x_1!1 - x_2!3 >= -1
 idk_0!7!1: y_1!1_2!3 - x_1!1 <= 0
 idk_0!7!2: y_1!1_2!3 - x_2!3 <= 0
 sum_0!8: y_1!2_2!3 - x_1!2 - x_2!3 >= -1
 idk_0!8!1: y_1!2_2!3 - x_1!2 <= 0
 idk_0!8!2: y_1!2_2!3 - x_2!3 <= 0
 sum_0!9: y_1!3_2!3 - x_1!3 - x_2!3 >= -1
 idk_0!9!1: y_1!3_2!3 - x_1!3 <= 0
 idk_0!9!2: y_1!3_2!3 - x_2!3 <= 0
 epc_1!1: +15.714756775093065 y_0!1_2!1 -14.279202641402279 y_0!2_2!1 +52.712810504549225 y_0!3_2!1 +81.54315116931085 y_0!1_2!2 -49.99152652450442 y_0!2_2!2 -36.20293243765986 y_0!3_2!2 -87.86715843925455 y_0!1_2!3 -74.39661853274752 y_0!2_2!3 +1.91335769951651 y_0!3_2!3 + lambda_1!1 - mu_1 = 0
 epc_1!2: +7.771987940752496 y_0!1_2!1 -67.65851459333959 y_0!2_2!1 +34.44900379810434 y_0!3_2!1 +34.23393184661313 y_0!1_2!2 -49.036420876483454 y_0!2_2!2 -54.097110155334384 y_0!3_2!2 +6.1150898548429495 y_0!1_2!3 +45.04127787154553 y_0!2_2!3 -45.25656807053788 y_0!3_2!3 + lambda_1!2 - mu_1 = 0
 epc_1!3: +37.989198049598 y_0!1_2!1 -12.180956222319935 y_0!2_2!1 +43.8931029022103 y_0!3_2!1 +98.29713746269266 y_0!1_2!2 -77.8845079591336 y_0!2_2!2 +1.6781528769073333 y_0!3_2!2 -71.24415241557216 y_0!1_2!3 -16.111352227087835 y_0!2_2!3 -17.61137019355492 y_0!3_2!3 + lambda_1!3 - mu_1 = 0
 dc_1: x_1!1 + x_1!2 + x_1!3 = 1
 bc_1!1: lambda_1!1 +289.9689139319596 x_1!1 <= 289.9689139319596
 bc_1!2: lambda_1!2 +289.9689139319596 x_1!2 <= 289.9689139319596
 bc_1!3: lambda_1!3 +289.9689139319596 x_1!3 <= 289.9689139319596
 sum_1!1: y_0!1_2!1 - x_0!1 - x_2!1 >= -1
 idk_1!1!0: y_0!1_2!1 - x_0!1 <= 0
 idk_1!1!2: y_0!1_2!1 - x_2!1 <= 0
 sum_1!2: y_0!2_2!1 - x_0!2 - x_2!1 >= -1
 idk_1!2!0: y_0!2_2!1 - x_0!2 <= 0
 idk_1!2!2: y_0!2_2!1 - x_2!1 <= 0
 sum_1!3: y_0!3_2!1 - x_0!3 - x_2!1 >= -1
 idk_1!3!0: y_0!3_2!1 - x_0!3 <= 0
 idk_1!3!2: y_0!3_2!1 - x_2!1 <= 0
 sum_1!4: y_0!1_2!2 - x_0!1 - x_2!2 >= -1
 idk_1!4!0: y_0!1_2!2 - x_0!1 <= 0
 idk_1!4!2: y_0!1_2!2 - x_2!2 <= 0
 sum_1!5: y_0!2_2!2 - x_0!2 - x_2!2 >= -1
 idk_1!5!0: y_0!2_2!2 - x_0!2 <= 0
 idk_1!5!2: y_0!2_2!2 - x_2!2 <= 0
 sum_1!6: y_0!3_2!2 - x_0!3 - x_2!2 >= -1
 idk_1!6!0: y_0!3_2!2 - x_0!3 <= 0
 idk_1!6!2: y_0!3_2!2 - x_2!2 <= 0
 sum_1!7: y_0!1_2!3 - x_0!1 - x_2!3 >= -1
 idk_1!7!0: y_0!1_2!3 - x_0!1 <= 0
 idk_1!7!2: y_0!1_2!3 - x_2!3 <= 0
 sum_1!8: y_0!2_2!3 - x_0!2 - x_2!3 >= -1
 idk_1!8!0: y_0!2_2!3 - x_0!2 <= 0
 idk_1!8!2: y_0!2_2!3 - x_2!3 <= 0
 sum_1!9: y_0!3_2!3 - x_0!3 - x_2!3 >= -1
 idk_1!9!0: y_0!3_2!3 - x_0!3 <= 0
 idk_1!9!2: y_0!3_2!3 - x_2!3 <= 0
 epc_2!1: -56.490070586778664 y_0!1_1!1 -11.673176790436756 y_0!2_1!1 -28.4056716455638 y_0!3_1!1 -34.02437560772957 y_0!1_1!2 -35.203067132790466 y_0!2_1!2 +76.31400634813033 y_0!3_1!2 +58.95041188876334 y_0!1_1!3 -58.21063216450766 y_0!2_1!3 +30.812934150057345 y_0!3_1!3 + lambda_2!1 - mu_2 = 0
 epc_2!2: -71.14696257021734 y_0!1_1!1 -79.25131275404183 y_0!2_1!1 -37.78904028860835 y_0!3_1!1 +2.3407278289041926 y_0!1_1!2 +88.67932767464194 y_0!2_1!2 -79.648594096071 y_0!3_1!2 -83.96883810972685 y_0!1_1!3 -7.722377026689358 y_0!2_1!3 +49.45879970515995 y_0!3_1!3 + lambda_2!2 - mu_2 = 0
 epc_2!3: -10.361857736797788 y_0!1_1!1 +91.1093138635346 y_0!2_1!1 -8.13253934769942 y_0!3_1!1 -4.947916468093055 y_0!1_1!2 -31.060840796353787 y_0!2_1!2 -33.63907431214146 y_0!3_1!2 -98.85960006842502 y_0!1_1!3 -59.03528263305551 y_0!2_1!3 -89.81771177063641 y_0!3_1!3 + lambda_2!3 - mu_2 = 0
 dc_2: x_2!1 + x_2!2 + x_2!3 = 1
 bc_2!1: lambda_2!1 +289.9689139319596 x_2!1 <= 289.9689139319596
 bc_2!2: lambda_2!2 +289.9689139319596 x_2!2 <= 289.9689139319596
 bc_2!3: lambda_2!3 +289.9689139319596 x_2!3 <= 289.9689139319596
 sum_2!1: y_0!1_1!1 - x_0!1 - x_1!1 >= -1
 idk_2!1!0: y_0!1_1!1 - x_0!1 <= 0
 idk_2!1!1: y_0!1_1!1 - x_1!1 <= 0
 sum_2!2: y_0!2_1!1 - x_0!2 - x_1!1 >= -1
 idk_2!2!0: y_0!2_1!1 - x_0!2 <= 0
 idk_2!2!1: y_0!2_1!1 - x_1!1 <= 0
 sum_2!3: y_0!3_1!1 - x_0!3 - x_1!1 >= -1
 idk_2!3!0: y_0!3_1!1 - x_0!3 <= 0
 idk_2!3!1: y_0!3_1!1 - x_1!1 <= 0
 sum_2!4: y_0!1_1!2 - x_0!1 - x_1!2 >= -1
 idk_2!4!0: y_0!1_1!2 - x_0!1 <= 0
 idk_2!4!1: y_0!1_1!2 - x_1!2 <= 0
 sum_2!5: y_0!2_1!2 - x_0!2 - x_1!2 >= -1
 idk_2!5!0: y_0!2_1!2 - x_0!2 <= 0
 idk_2!5!1: y_0!2_1!2 - x_1!2 <= 0
 sum_2!6: y_0!3_1!2 - x_0!3 - x_1!2 >= -1
 idk_2!6!0: y_0!3_1!2 - x_0!3 <= 0
 idk_2!6!1: y_0!3_1!2 - x_1!2 <= 0
 sum_2!7: y_0!1_1!3 - x_0!1 - x_1!3 >= -1
 idk_2!7!0: y_0!1_1!3 - x_0!1 <= 0
 idk_2!7!1: y_0!1_1!3 - x_1!3 <= 0
 sum_2!8: y_0!2_1!3 - x_0!2 - x_1!3 >= -1
 idk_2!8!0: y_0!2_1!3 - x_0!2 <= 0
 idk_2!8!1: y_0!2_1!3 - x_1!3 <= 0
 sum_2!9: y_0!3_1!3 - x_0!3 - x_1!3 >= -1
 idk_2!9!0: y_0!3_1!3 - x_0!3 <= 0
 idk_2!9!1: y_0!3_1!3 - x_1!3 <= 0
Bounds
 mu_0 free
 mu_1 free
 mu_2 free
Binary
 x_0!1 x_0!2 x_0!3 x_1!1 x_1!2 x_1!3 x_2!1 x_2!2 x_2!3
End
